9527382465546816738191918438437291861943846287319732875343873197264384375537429256483764385528552864286187352846284372919197625287652552873528882525288552552873528988461525252894255289914345289161891379137915289152888225528822855287165375537529183761943752917391738347356473826473834738264762917826537753537785353438773643528775356162874364387526197264387343873462877526256194429256446641865645564564762918537537619528